20	5
0	5	3	4	2	5	1
1	5	19	14	15	20	12
2	4	14	8	19	20
3	3	20	8	13
4	2	8	7
5	3	13	8	7
6	2	16	15
7	2	17	11
8	4	16	17	12	15
9	3	18	12	10
10	3	6	19	14
11	2	9	20
12	1	21
13	1	21
14	1	21
15	1	21
16	1	21
17	1	21
18	1	21
19	1	21
20	1	21
21	0
0	0	0	0	0	0	0
1	4	3	2	5	5	1
2	8	2	2	4	1	2
3	7	4	1	5	3	3
4	3	1	3	3	5	2
5	8	4	3	4	3	5
6	5	3	1	3	1	4
7	1	1	4	2	5	5
8	10	4	4	2	4	3
9	5	4	2	1	2	4
10	5	5	2	3	5	2
11	4	4	3	4	3	5
12	1	3	4	2	5	3
13	8	1	3	4	1	4
14	6	4	3	3	3	3
15	2	4	5	4	5	2
16	6	3	1	5	1	2
17	4	2	2	4	4	5
18	10	5	1	1	4	2
19	1	2	3	2	2	4
20	7	4	4	1	1	3
21	0	0	0	0	0	0
9	7	12	9	9
